c NeuroCodeBench 2.0 CNF formula with verdict Sat
p cnf 8 24
8 7 4 3 -1 -2 -6 0
-4 0
8 -2 -4 -5 -7 -1 0
6 8 7 0
3 8 -7 -6 -5 -2 -4 0
7 6 1 8 3 -2 -5 0
6 -2 -8 -7 -4 0
-2 0
-5 -7 0
7 4 8 5 2 1 -6 0
-5 -4 0
4 7 -2 -3 -8 -1 -6 0
7 5 2 -3 -4 -8 0
-8 -1 -7 -4 0
7 -2 -1 0
-6 0
4 -2 0
3 -4 -2 0
1 5 7 -6 -3 -8 0
5 8 7 -2 0
3 -7 -4 -1 0
4 5 -7 -8 0
7 2 -6 -4 -8 0
4 6 -5 -1 -2 -3 -7 0
